unknown
(model
(declare-sort BoundSet 0)
(declare-sort UnboundSet 0)
(define-fun IsNoShirt ((BOUND_VARIABLE_352 BoundSet)) Bool false)
(define-fun IsTampering ((BOUND_VARIABLE_352 BoundSet)) Bool false)
(define-fun IsTamperedWith ((BOUND_VARIABLE_352 BoundSet)) Bool false)
(define-fun IsMetal ((BOUND_VARIABLE_352 BoundSet)) Bool false)
)
